max: 9 * Y0 + 1 * Y1 + 2 * Y2 + 5 * Y3 + 2 * Y4 + 3 * Y5 + 5 * Y6 + 7 * Y7 + 4 * Y8 + 4 * Y9;
/* Restricciones: */
/* SOLAPAMIENTOS: */
X_0_0_0_0 + X_1_0_0_0 + X_2_0_0_0 + X_3_0_0_0 + X_4_0_0_0 + X_5_0_0_0 + X_6_0_0_0 + X_7_0_0_0 + X_8_0_0_0 + X_9_0_0_0 <= 1;
X_0_0_0_1 + X_1_0_0_1 + X_2_0_0_1 + X_3_0_0_1 + X_4_0_0_1 + X_5_0_0_1 + X_6_0_0_1 + X_7_0_0_1 + X_8_0_0_1 + X_9_0_0_1 <= 1;
X_0_0_0_2 + X_1_0_0_2 + X_2_0_0_2 + X_3_0_0_2 + X_4_0_0_2 + X_5_0_0_2 + X_6_0_0_2 + X_7_0_0_2 + X_8_0_0_2 + X_9_0_0_2 <= 1;
X_0_0_0_3 + X_1_0_0_3 + X_2_0_0_3 + X_3_0_0_3 + X_4_0_0_3 + X_5_0_0_3 + X_6_0_0_3 + X_7_0_0_3 + X_8_0_0_3 + X_9_0_0_3 <= 1;
X_0_0_0_4 + X_1_0_0_4 + X_2_0_0_4 + X_3_0_0_4 + X_4_0_0_4 + X_5_0_0_4 + X_6_0_0_4 + X_7_0_0_4 + X_8_0_0_4 + X_9_0_0_4 <= 1;
X_0_0_0_5 + X_1_0_0_5 + X_2_0_0_5 + X_3_0_0_5 + X_4_0_0_5 + X_5_0_0_5 + X_6_0_0_5 + X_7_0_0_5 + X_8_0_0_5 + X_9_0_0_5 <= 1;
X_0_0_0_6 + X_1_0_0_6 + X_2_0_0_6 + X_3_0_0_6 + X_4_0_0_6 + X_5_0_0_6 + X_6_0_0_6 + X_7_0_0_6 + X_8_0_0_6 + X_9_0_0_6 <= 1;
X_0_0_1_0 + X_1_0_1_0 + X_2_0_1_0 + X_3_0_1_0 + X_4_0_1_0 + X_5_0_1_0 + X_6_0_1_0 + X_7_0_1_0 + X_8_0_1_0 + X_9_0_1_0 <= 1;
X_0_0_1_1 + X_1_0_1_1 + X_2_0_1_1 + X_3_0_1_1 + X_4_0_1_1 + X_5_0_1_1 + X_6_0_1_1 + X_7_0_1_1 + X_8_0_1_1 + X_9_0_1_1 <= 1;
X_0_0_1_2 + X_1_0_1_2 + X_2_0_1_2 + X_3_0_1_2 + X_4_0_1_2 + X_5_0_1_2 + X_6_0_1_2 + X_7_0_1_2 + X_8_0_1_2 + X_9_0_1_2 <= 1;
X_0_0_1_3 + X_1_0_1_3 + X_2_0_1_3 + X_3_0_1_3 + X_4_0_1_3 + X_5_0_1_3 + X_6_0_1_3 + X_7_0_1_3 + X_8_0_1_3 + X_9_0_1_3 <= 1;
X_0_0_1_4 + X_1_0_1_4 + X_2_0_1_4 + X_3_0_1_4 + X_4_0_1_4 + X_5_0_1_4 + X_6_0_1_4 + X_7_0_1_4 + X_8_0_1_4 + X_9_0_1_4 <= 1;
X_0_0_1_5 + X_1_0_1_5 + X_2_0_1_5 + X_3_0_1_5 + X_4_0_1_5 + X_5_0_1_5 + X_6_0_1_5 + X_7_0_1_5 + X_8_0_1_5 + X_9_0_1_5 <= 1;
X_0_0_1_6 + X_1_0_1_6 + X_2_0_1_6 + X_3_0_1_6 + X_4_0_1_6 + X_5_0_1_6 + X_6_0_1_6 + X_7_0_1_6 + X_8_0_1_6 + X_9_0_1_6 <= 1;
X_0_0_2_0 + X_1_0_2_0 + X_2_0_2_0 + X_3_0_2_0 + X_4_0_2_0 + X_5_0_2_0 + X_6_0_2_0 + X_7_0_2_0 + X_8_0_2_0 + X_9_0_2_0 <= 1;
X_0_0_2_1 + X_1_0_2_1 + X_2_0_2_1 + X_3_0_2_1 + X_4_0_2_1 + X_5_0_2_1 + X_6_0_2_1 + X_7_0_2_1 + X_8_0_2_1 + X_9_0_2_1 <= 1;
X_0_0_2_2 + X_1_0_2_2 + X_2_0_2_2 + X_3_0_2_2 + X_4_0_2_2 + X_5_0_2_2 + X_6_0_2_2 + X_7_0_2_2 + X_8_0_2_2 + X_9_0_2_2 <= 1;
X_0_0_2_3 + X_1_0_2_3 + X_2_0_2_3 + X_3_0_2_3 + X_4_0_2_3 + X_5_0_2_3 + X_6_0_2_3 + X_7_0_2_3 + X_8_0_2_3 + X_9_0_2_3 <= 1;
X_0_0_2_4 + X_1_0_2_4 + X_2_0_2_4 + X_3_0_2_4 + X_4_0_2_4 + X_5_0_2_4 + X_6_0_2_4 + X_7_0_2_4 + X_8_0_2_4 + X_9_0_2_4 <= 1;
X_0_0_2_5 + X_1_0_2_5 + X_2_0_2_5 + X_3_0_2_5 + X_4_0_2_5 + X_5_0_2_5 + X_6_0_2_5 + X_7_0_2_5 + X_8_0_2_5 + X_9_0_2_5 <= 1;
X_0_0_2_6 + X_1_0_2_6 + X_2_0_2_6 + X_3_0_2_6 + X_4_0_2_6 + X_5_0_2_6 + X_6_0_2_6 + X_7_0_2_6 + X_8_0_2_6 + X_9_0_2_6 <= 1;
X_0_0_3_0 + X_1_0_3_0 + X_2_0_3_0 + X_3_0_3_0 + X_4_0_3_0 + X_5_0_3_0 + X_6_0_3_0 + X_7_0_3_0 + X_8_0_3_0 + X_9_0_3_0 <= 1;
X_0_0_3_1 + X_1_0_3_1 + X_2_0_3_1 + X_3_0_3_1 + X_4_0_3_1 + X_5_0_3_1 + X_6_0_3_1 + X_7_0_3_1 + X_8_0_3_1 + X_9_0_3_1 <= 1;
X_0_0_3_2 + X_1_0_3_2 + X_2_0_3_2 + X_3_0_3_2 + X_4_0_3_2 + X_5_0_3_2 + X_6_0_3_2 + X_7_0_3_2 + X_8_0_3_2 + X_9_0_3_2 <= 1;
X_0_0_3_3 + X_1_0_3_3 + X_2_0_3_3 + X_3_0_3_3 + X_4_0_3_3 + X_5_0_3_3 + X_6_0_3_3 + X_7_0_3_3 + X_8_0_3_3 + X_9_0_3_3 <= 1;
X_0_0_3_4 + X_1_0_3_4 + X_2_0_3_4 + X_3_0_3_4 + X_4_0_3_4 + X_5_0_3_4 + X_6_0_3_4 + X_7_0_3_4 + X_8_0_3_4 + X_9_0_3_4 <= 1;
X_0_0_3_5 + X_1_0_3_5 + X_2_0_3_5 + X_3_0_3_5 + X_4_0_3_5 + X_5_0_3_5 + X_6_0_3_5 + X_7_0_3_5 + X_8_0_3_5 + X_9_0_3_5 <= 1;
X_0_0_3_6 + X_1_0_3_6 + X_2_0_3_6 + X_3_0_3_6 + X_4_0_3_6 + X_5_0_3_6 + X_6_0_3_6 + X_7_0_3_6 + X_8_0_3_6 + X_9_0_3_6 <= 1;
X_0_0_4_0 + X_1_0_4_0 + X_2_0_4_0 + X_3_0_4_0 + X_4_0_4_0 + X_5_0_4_0 + X_6_0_4_0 + X_7_0_4_0 + X_8_0_4_0 + X_9_0_4_0 <= 1;
X_0_0_4_1 + X_1_0_4_1 + X_2_0_4_1 + X_3_0_4_1 + X_4_0_4_1 + X_5_0_4_1 + X_6_0_4_1 + X_7_0_4_1 + X_8_0_4_1 + X_9_0_4_1 <= 1;
X_0_0_4_2 + X_1_0_4_2 + X_2_0_4_2 + X_3_0_4_2 + X_4_0_4_2 + X_5_0_4_2 + X_6_0_4_2 + X_7_0_4_2 + X_8_0_4_2 + X_9_0_4_2 <= 1;
X_0_0_4_3 + X_1_0_4_3 + X_2_0_4_3 + X_3_0_4_3 + X_4_0_4_3 + X_5_0_4_3 + X_6_0_4_3 + X_7_0_4_3 + X_8_0_4_3 + X_9_0_4_3 <= 1;
X_0_0_4_4 + X_1_0_4_4 + X_2_0_4_4 + X_3_0_4_4 + X_4_0_4_4 + X_5_0_4_4 + X_6_0_4_4 + X_7_0_4_4 + X_8_0_4_4 + X_9_0_4_4 <= 1;
X_0_0_4_5 + X_1_0_4_5 + X_2_0_4_5 + X_3_0_4_5 + X_4_0_4_5 + X_5_0_4_5 + X_6_0_4_5 + X_7_0_4_5 + X_8_0_4_5 + X_9_0_4_5 <= 1;
X_0_0_4_6 + X_1_0_4_6 + X_2_0_4_6 + X_3_0_4_6 + X_4_0_4_6 + X_5_0_4_6 + X_6_0_4_6 + X_7_0_4_6 + X_8_0_4_6 + X_9_0_4_6 <= 1;
/* BLOQUES CONSECUTIVOS: */
X_1_0_0_0 - X_1_0_0_1 <= Y1;
X_1_0_0_1 - X_1_0_0_2 <= Y1;
X_1_0_0_2 - X_1_0_0_3 <= Y1;
X_1_0_0_3 - X_1_0_0_4 <= Y1;
X_1_0_0_4 - X_1_0_0_5 <= Y1;
X_1_0_0_5 - X_1_0_0_6 <= Y1;
X_1_0_1_0 - X_1_0_1_1 <= Y1;
X_1_0_1_1 - X_1_0_1_2 <= Y1;
X_1_0_1_2 - X_1_0_1_3 <= Y1;
X_1_0_1_3 - X_1_0_1_4 <= Y1;
X_1_0_1_4 - X_1_0_1_5 <= Y1;
X_1_0_1_5 - X_1_0_1_6 <= Y1;
X_1_0_2_0 - X_1_0_2_1 <= Y1;
X_1_0_2_1 - X_1_0_2_2 <= Y1;
X_1_0_2_2 - X_1_0_2_3 <= Y1;
X_1_0_2_3 - X_1_0_2_4 <= Y1;
X_1_0_2_4 - X_1_0_2_5 <= Y1;
X_1_0_2_5 - X_1_0_2_6 <= Y1;
X_1_0_3_0 - X_1_0_3_1 <= Y1;
X_1_0_3_1 - X_1_0_3_2 <= Y1;
X_1_0_3_2 - X_1_0_3_3 <= Y1;
X_1_0_3_3 - X_1_0_3_4 <= Y1;
X_1_0_3_4 - X_1_0_3_5 <= Y1;
X_1_0_3_5 - X_1_0_3_6 <= Y1;
X_1_0_4_0 - X_1_0_4_1 <= Y1;
X_1_0_4_1 - X_1_0_4_2 <= Y1;
X_1_0_4_2 - X_1_0_4_3 <= Y1;
X_1_0_4_3 - X_1_0_4_4 <= Y1;
X_1_0_4_4 - X_1_0_4_5 <= Y1;
X_1_0_4_5 - X_1_0_4_6 <= Y1;
X_5_0_0_0 - X_5_0_0_1 <= Y5;
X_5_0_0_1 - X_5_0_0_2 <= Y5;
X_5_0_0_2 - X_5_0_0_3 <= Y5;
X_5_0_0_3 - X_5_0_0_4 <= Y5;
X_5_0_0_4 - X_5_0_0_5 <= Y5;
X_5_0_0_5 - X_5_0_0_6 <= Y5;
X_5_0_1_0 - X_5_0_1_1 <= Y5;
X_5_0_1_1 - X_5_0_1_2 <= Y5;
X_5_0_1_2 - X_5_0_1_3 <= Y5;
X_5_0_1_3 - X_5_0_1_4 <= Y5;
X_5_0_1_4 - X_5_0_1_5 <= Y5;
X_5_0_1_5 - X_5_0_1_6 <= Y5;
X_5_0_2_0 - X_5_0_2_1 <= Y5;
X_5_0_2_1 - X_5_0_2_2 <= Y5;
X_5_0_2_2 - X_5_0_2_3 <= Y5;
X_5_0_2_3 - X_5_0_2_4 <= Y5;
X_5_0_2_4 - X_5_0_2_5 <= Y5;
X_5_0_2_5 - X_5_0_2_6 <= Y5;
X_5_0_3_0 - X_5_0_3_1 <= Y5;
X_5_0_3_1 - X_5_0_3_2 <= Y5;
X_5_0_3_2 - X_5_0_3_3 <= Y5;
X_5_0_3_3 - X_5_0_3_4 <= Y5;
X_5_0_3_4 - X_5_0_3_5 <= Y5;
X_5_0_3_5 - X_5_0_3_6 <= Y5;
X_5_0_4_0 - X_5_0_4_1 <= Y5;
X_5_0_4_1 - X_5_0_4_2 <= Y5;
X_5_0_4_2 - X_5_0_4_3 <= Y5;
X_5_0_4_3 - X_5_0_4_4 <= Y5;
X_5_0_4_4 - X_5_0_4_5 <= Y5;
X_5_0_4_5 - X_5_0_4_6 <= Y5;
/* EXCLUSION ULTIMO BLOQUE: */
X_1_0_0_6 <= X_1_0_0_5;
X_1_0_0_6 <= Y1;
X_1_0_0_5 <= Y1;
X_1_0_1_6 <= X_1_0_1_5;
X_1_0_1_6 <= Y1;
X_1_0_1_5 <= Y1;
X_1_0_2_6 <= X_1_0_2_5;
X_1_0_2_6 <= Y1;
X_1_0_2_5 <= Y1;
X_1_0_3_6 <= X_1_0_3_5;
X_1_0_3_6 <= Y1;
X_1_0_3_5 <= Y1;
X_1_0_4_6 <= X_1_0_4_5;
X_1_0_4_6 <= Y1;
X_1_0_4_5 <= Y1;
X_5_0_0_6 <= X_5_0_0_5;
X_5_0_0_6 <= Y5;
X_5_0_0_5 <= Y5;
X_5_0_1_6 <= X_5_0_1_5;
X_5_0_1_6 <= Y5;
X_5_0_1_5 <= Y5;
X_5_0_2_6 <= X_5_0_2_5;
X_5_0_2_6 <= Y5;
X_5_0_2_5 <= Y5;
X_5_0_3_6 <= X_5_0_3_5;
X_5_0_3_6 <= Y5;
X_5_0_3_5 <= Y5;
X_5_0_4_6 <= X_5_0_4_5;
X_5_0_4_6 <= Y5;
X_5_0_4_5 <= Y5;
/* CAPACIDAD: */
39 * X_0_0_0_0 <= 44;
39 * X_0_0_0_1 <= 44;
39 * X_0_0_0_2 <= 44;
39 * X_0_0_0_3 <= 44;
39 * X_0_0_0_4 <= 44;
39 * X_0_0_0_5 <= 44;
39 * X_0_0_0_6 <= 44;
39 * X_0_0_1_0 <= 44;
39 * X_0_0_1_1 <= 44;
39 * X_0_0_1_2 <= 44;
39 * X_0_0_1_3 <= 44;
39 * X_0_0_1_4 <= 44;
39 * X_0_0_1_5 <= 44;
39 * X_0_0_1_6 <= 44;
39 * X_0_0_2_0 <= 44;
39 * X_0_0_2_1 <= 44;
39 * X_0_0_2_2 <= 44;
39 * X_0_0_2_3 <= 44;
39 * X_0_0_2_4 <= 44;
39 * X_0_0_2_5 <= 44;
39 * X_0_0_2_6 <= 44;
39 * X_0_0_3_0 <= 44;
39 * X_0_0_3_1 <= 44;
39 * X_0_0_3_2 <= 44;
39 * X_0_0_3_3 <= 44;
39 * X_0_0_3_4 <= 44;
39 * X_0_0_3_5 <= 44;
39 * X_0_0_3_6 <= 44;
39 * X_0_0_4_0 <= 44;
39 * X_0_0_4_1 <= 44;
39 * X_0_0_4_2 <= 44;
39 * X_0_0_4_3 <= 44;
39 * X_0_0_4_4 <= 44;
39 * X_0_0_4_5 <= 44;
39 * X_0_0_4_6 <= 44;
10 * X_1_0_0_0 <= 44;
10 * X_1_0_0_1 <= 44;
10 * X_1_0_0_2 <= 44;
10 * X_1_0_0_3 <= 44;
10 * X_1_0_0_4 <= 44;
10 * X_1_0_0_5 <= 44;
10 * X_1_0_0_6 <= 44;
10 * X_1_0_1_0 <= 44;
10 * X_1_0_1_1 <= 44;
10 * X_1_0_1_2 <= 44;
10 * X_1_0_1_3 <= 44;
10 * X_1_0_1_4 <= 44;
10 * X_1_0_1_5 <= 44;
10 * X_1_0_1_6 <= 44;
10 * X_1_0_2_0 <= 44;
10 * X_1_0_2_1 <= 44;
10 * X_1_0_2_2 <= 44;
10 * X_1_0_2_3 <= 44;
10 * X_1_0_2_4 <= 44;
10 * X_1_0_2_5 <= 44;
10 * X_1_0_2_6 <= 44;
10 * X_1_0_3_0 <= 44;
10 * X_1_0_3_1 <= 44;
10 * X_1_0_3_2 <= 44;
10 * X_1_0_3_3 <= 44;
10 * X_1_0_3_4 <= 44;
10 * X_1_0_3_5 <= 44;
10 * X_1_0_3_6 <= 44;
10 * X_1_0_4_0 <= 44;
10 * X_1_0_4_1 <= 44;
10 * X_1_0_4_2 <= 44;
10 * X_1_0_4_3 <= 44;
10 * X_1_0_4_4 <= 44;
10 * X_1_0_4_5 <= 44;
10 * X_1_0_4_6 <= 44;
12 * X_2_0_0_0 <= 44;
12 * X_2_0_0_1 <= 44;
12 * X_2_0_0_2 <= 44;
12 * X_2_0_0_3 <= 44;
12 * X_2_0_0_4 <= 44;
12 * X_2_0_0_5 <= 44;
12 * X_2_0_0_6 <= 44;
12 * X_2_0_1_0 <= 44;
12 * X_2_0_1_1 <= 44;
12 * X_2_0_1_2 <= 44;
12 * X_2_0_1_3 <= 44;
12 * X_2_0_1_4 <= 44;
12 * X_2_0_1_5 <= 44;
12 * X_2_0_1_6 <= 44;
12 * X_2_0_2_0 <= 44;
12 * X_2_0_2_1 <= 44;
12 * X_2_0_2_2 <= 44;
12 * X_2_0_2_3 <= 44;
12 * X_2_0_2_4 <= 44;
12 * X_2_0_2_5 <= 44;
12 * X_2_0_2_6 <= 44;
12 * X_2_0_3_0 <= 44;
12 * X_2_0_3_1 <= 44;
12 * X_2_0_3_2 <= 44;
12 * X_2_0_3_3 <= 44;
12 * X_2_0_3_4 <= 44;
12 * X_2_0_3_5 <= 44;
12 * X_2_0_3_6 <= 44;
12 * X_2_0_4_0 <= 44;
12 * X_2_0_4_1 <= 44;
12 * X_2_0_4_2 <= 44;
12 * X_2_0_4_3 <= 44;
12 * X_2_0_4_4 <= 44;
12 * X_2_0_4_5 <= 44;
12 * X_2_0_4_6 <= 44;
15 * X_3_0_0_0 <= 44;
15 * X_3_0_0_1 <= 44;
15 * X_3_0_0_2 <= 44;
15 * X_3_0_0_3 <= 44;
15 * X_3_0_0_4 <= 44;
15 * X_3_0_0_5 <= 44;
15 * X_3_0_0_6 <= 44;
15 * X_3_0_1_0 <= 44;
15 * X_3_0_1_1 <= 44;
15 * X_3_0_1_2 <= 44;
15 * X_3_0_1_3 <= 44;
15 * X_3_0_1_4 <= 44;
15 * X_3_0_1_5 <= 44;
15 * X_3_0_1_6 <= 44;
15 * X_3_0_2_0 <= 44;
15 * X_3_0_2_1 <= 44;
15 * X_3_0_2_2 <= 44;
15 * X_3_0_2_3 <= 44;
15 * X_3_0_2_4 <= 44;
15 * X_3_0_2_5 <= 44;
15 * X_3_0_2_6 <= 44;
15 * X_3_0_3_0 <= 44;
15 * X_3_0_3_1 <= 44;
15 * X_3_0_3_2 <= 44;
15 * X_3_0_3_3 <= 44;
15 * X_3_0_3_4 <= 44;
15 * X_3_0_3_5 <= 44;
15 * X_3_0_3_6 <= 44;
15 * X_3_0_4_0 <= 44;
15 * X_3_0_4_1 <= 44;
15 * X_3_0_4_2 <= 44;
15 * X_3_0_4_3 <= 44;
15 * X_3_0_4_4 <= 44;
15 * X_3_0_4_5 <= 44;
15 * X_3_0_4_6 <= 44;
34 * X_4_0_0_0 <= 44;
34 * X_4_0_0_1 <= 44;
34 * X_4_0_0_2 <= 44;
34 * X_4_0_0_3 <= 44;
34 * X_4_0_0_4 <= 44;
34 * X_4_0_0_5 <= 44;
34 * X_4_0_0_6 <= 44;
34 * X_4_0_1_0 <= 44;
34 * X_4_0_1_1 <= 44;
34 * X_4_0_1_2 <= 44;
34 * X_4_0_1_3 <= 44;
34 * X_4_0_1_4 <= 44;
34 * X_4_0_1_5 <= 44;
34 * X_4_0_1_6 <= 44;
34 * X_4_0_2_0 <= 44;
34 * X_4_0_2_1 <= 44;
34 * X_4_0_2_2 <= 44;
34 * X_4_0_2_3 <= 44;
34 * X_4_0_2_4 <= 44;
34 * X_4_0_2_5 <= 44;
34 * X_4_0_2_6 <= 44;
34 * X_4_0_3_0 <= 44;
34 * X_4_0_3_1 <= 44;
34 * X_4_0_3_2 <= 44;
34 * X_4_0_3_3 <= 44;
34 * X_4_0_3_4 <= 44;
34 * X_4_0_3_5 <= 44;
34 * X_4_0_3_6 <= 44;
34 * X_4_0_4_0 <= 44;
34 * X_4_0_4_1 <= 44;
34 * X_4_0_4_2 <= 44;
34 * X_4_0_4_3 <= 44;
34 * X_4_0_4_4 <= 44;
34 * X_4_0_4_5 <= 44;
34 * X_4_0_4_6 <= 44;
11 * X_5_0_0_0 <= 44;
11 * X_5_0_0_1 <= 44;
11 * X_5_0_0_2 <= 44;
11 * X_5_0_0_3 <= 44;
11 * X_5_0_0_4 <= 44;
11 * X_5_0_0_5 <= 44;
11 * X_5_0_0_6 <= 44;
11 * X_5_0_1_0 <= 44;
11 * X_5_0_1_1 <= 44;
11 * X_5_0_1_2 <= 44;
11 * X_5_0_1_3 <= 44;
11 * X_5_0_1_4 <= 44;
11 * X_5_0_1_5 <= 44;
11 * X_5_0_1_6 <= 44;
11 * X_5_0_2_0 <= 44;
11 * X_5_0_2_1 <= 44;
11 * X_5_0_2_2 <= 44;
11 * X_5_0_2_3 <= 44;
11 * X_5_0_2_4 <= 44;
11 * X_5_0_2_5 <= 44;
11 * X_5_0_2_6 <= 44;
11 * X_5_0_3_0 <= 44;
11 * X_5_0_3_1 <= 44;
11 * X_5_0_3_2 <= 44;
11 * X_5_0_3_3 <= 44;
11 * X_5_0_3_4 <= 44;
11 * X_5_0_3_5 <= 44;
11 * X_5_0_3_6 <= 44;
11 * X_5_0_4_0 <= 44;
11 * X_5_0_4_1 <= 44;
11 * X_5_0_4_2 <= 44;
11 * X_5_0_4_3 <= 44;
11 * X_5_0_4_4 <= 44;
11 * X_5_0_4_5 <= 44;
11 * X_5_0_4_6 <= 44;
27 * X_6_0_0_0 <= 44;
27 * X_6_0_0_1 <= 44;
27 * X_6_0_0_2 <= 44;
27 * X_6_0_0_3 <= 44;
27 * X_6_0_0_4 <= 44;
27 * X_6_0_0_5 <= 44;
27 * X_6_0_0_6 <= 44;
27 * X_6_0_1_0 <= 44;
27 * X_6_0_1_1 <= 44;
27 * X_6_0_1_2 <= 44;
27 * X_6_0_1_3 <= 44;
27 * X_6_0_1_4 <= 44;
27 * X_6_0_1_5 <= 44;
27 * X_6_0_1_6 <= 44;
27 * X_6_0_2_0 <= 44;
27 * X_6_0_2_1 <= 44;
27 * X_6_0_2_2 <= 44;
27 * X_6_0_2_3 <= 44;
27 * X_6_0_2_4 <= 44;
27 * X_6_0_2_5 <= 44;
27 * X_6_0_2_6 <= 44;
27 * X_6_0_3_0 <= 44;
27 * X_6_0_3_1 <= 44;
27 * X_6_0_3_2 <= 44;
27 * X_6_0_3_3 <= 44;
27 * X_6_0_3_4 <= 44;
27 * X_6_0_3_5 <= 44;
27 * X_6_0_3_6 <= 44;
27 * X_6_0_4_0 <= 44;
27 * X_6_0_4_1 <= 44;
27 * X_6_0_4_2 <= 44;
27 * X_6_0_4_3 <= 44;
27 * X_6_0_4_4 <= 44;
27 * X_6_0_4_5 <= 44;
27 * X_6_0_4_6 <= 44;
28 * X_7_0_0_0 <= 44;
28 * X_7_0_0_1 <= 44;
28 * X_7_0_0_2 <= 44;
28 * X_7_0_0_3 <= 44;
28 * X_7_0_0_4 <= 44;
28 * X_7_0_0_5 <= 44;
28 * X_7_0_0_6 <= 44;
28 * X_7_0_1_0 <= 44;
28 * X_7_0_1_1 <= 44;
28 * X_7_0_1_2 <= 44;
28 * X_7_0_1_3 <= 44;
28 * X_7_0_1_4 <= 44;
28 * X_7_0_1_5 <= 44;
28 * X_7_0_1_6 <= 44;
28 * X_7_0_2_0 <= 44;
28 * X_7_0_2_1 <= 44;
28 * X_7_0_2_2 <= 44;
28 * X_7_0_2_3 <= 44;
28 * X_7_0_2_4 <= 44;
28 * X_7_0_2_5 <= 44;
28 * X_7_0_2_6 <= 44;
28 * X_7_0_3_0 <= 44;
28 * X_7_0_3_1 <= 44;
28 * X_7_0_3_2 <= 44;
28 * X_7_0_3_3 <= 44;
28 * X_7_0_3_4 <= 44;
28 * X_7_0_3_5 <= 44;
28 * X_7_0_3_6 <= 44;
28 * X_7_0_4_0 <= 44;
28 * X_7_0_4_1 <= 44;
28 * X_7_0_4_2 <= 44;
28 * X_7_0_4_3 <= 44;
28 * X_7_0_4_4 <= 44;
28 * X_7_0_4_5 <= 44;
28 * X_7_0_4_6 <= 44;
34 * X_8_0_0_0 <= 44;
34 * X_8_0_0_1 <= 44;
34 * X_8_0_0_2 <= 44;
34 * X_8_0_0_3 <= 44;
34 * X_8_0_0_4 <= 44;
34 * X_8_0_0_5 <= 44;
34 * X_8_0_0_6 <= 44;
34 * X_8_0_1_0 <= 44;
34 * X_8_0_1_1 <= 44;
34 * X_8_0_1_2 <= 44;
34 * X_8_0_1_3 <= 44;
34 * X_8_0_1_4 <= 44;
34 * X_8_0_1_5 <= 44;
34 * X_8_0_1_6 <= 44;
34 * X_8_0_2_0 <= 44;
34 * X_8_0_2_1 <= 44;
34 * X_8_0_2_2 <= 44;
34 * X_8_0_2_3 <= 44;
34 * X_8_0_2_4 <= 44;
34 * X_8_0_2_5 <= 44;
34 * X_8_0_2_6 <= 44;
34 * X_8_0_3_0 <= 44;
34 * X_8_0_3_1 <= 44;
34 * X_8_0_3_2 <= 44;
34 * X_8_0_3_3 <= 44;
34 * X_8_0_3_4 <= 44;
34 * X_8_0_3_5 <= 44;
34 * X_8_0_3_6 <= 44;
34 * X_8_0_4_0 <= 44;
34 * X_8_0_4_1 <= 44;
34 * X_8_0_4_2 <= 44;
34 * X_8_0_4_3 <= 44;
34 * X_8_0_4_4 <= 44;
34 * X_8_0_4_5 <= 44;
34 * X_8_0_4_6 <= 44;
40 * X_9_0_0_0 <= 44;
40 * X_9_0_0_1 <= 44;
40 * X_9_0_0_2 <= 44;
40 * X_9_0_0_3 <= 44;
40 * X_9_0_0_4 <= 44;
40 * X_9_0_0_5 <= 44;
40 * X_9_0_0_6 <= 44;
40 * X_9_0_1_0 <= 44;
40 * X_9_0_1_1 <= 44;
40 * X_9_0_1_2 <= 44;
40 * X_9_0_1_3 <= 44;
40 * X_9_0_1_4 <= 44;
40 * X_9_0_1_5 <= 44;
40 * X_9_0_1_6 <= 44;
40 * X_9_0_2_0 <= 44;
40 * X_9_0_2_1 <= 44;
40 * X_9_0_2_2 <= 44;
40 * X_9_0_2_3 <= 44;
40 * X_9_0_2_4 <= 44;
40 * X_9_0_2_5 <= 44;
40 * X_9_0_2_6 <= 44;
40 * X_9_0_3_0 <= 44;
40 * X_9_0_3_1 <= 44;
40 * X_9_0_3_2 <= 44;
40 * X_9_0_3_3 <= 44;
40 * X_9_0_3_4 <= 44;
40 * X_9_0_3_5 <= 44;
40 * X_9_0_3_6 <= 44;
40 * X_9_0_4_0 <= 44;
40 * X_9_0_4_1 <= 44;
40 * X_9_0_4_2 <= 44;
40 * X_9_0_4_3 <= 44;
40 * X_9_0_4_4 <= 44;
40 * X_9_0_4_5 <= 44;
40 * X_9_0_4_6 <= 44;
/* ASIGNACION EXACTA: */
X_0_0_0_0 + X_0_0_0_1 + X_0_0_0_2 + X_0_0_0_3 + X_0_0_0_4 + X_0_0_0_5 + X_0_0_0_6 + X_0_0_1_0 + X_0_0_1_1 + X_0_0_1_2 + X_0_0_1_3 + X_0_0_1_4 + X_0_0_1_5 + X_0_0_1_6 + X_0_0_2_0 + X_0_0_2_1 + X_0_0_2_2 + X_0_0_2_3 + X_0_0_2_4 + X_0_0_2_5 + X_0_0_2_6 + X_0_0_3_0 + X_0_0_3_1 + X_0_0_3_2 + X_0_0_3_3 + X_0_0_3_4 + X_0_0_3_5 + X_0_0_3_6 + X_0_0_4_0 + X_0_0_4_1 + X_0_0_4_2 + X_0_0_4_3 + X_0_0_4_4 + X_0_0_4_5 + X_0_0_4_6 = 1 * Y0;
X_1_0_0_0 + X_1_0_0_1 + X_1_0_0_2 + X_1_0_0_3 + X_1_0_0_4 + X_1_0_0_5 + X_1_0_0_6 + X_1_0_1_0 + X_1_0_1_1 + X_1_0_1_2 + X_1_0_1_3 + X_1_0_1_4 + X_1_0_1_5 + X_1_0_1_6 + X_1_0_2_0 + X_1_0_2_1 + X_1_0_2_2 + X_1_0_2_3 + X_1_0_2_4 + X_1_0_2_5 + X_1_0_2_6 + X_1_0_3_0 + X_1_0_3_1 + X_1_0_3_2 + X_1_0_3_3 + X_1_0_3_4 + X_1_0_3_5 + X_1_0_3_6 + X_1_0_4_0 + X_1_0_4_1 + X_1_0_4_2 + X_1_0_4_3 + X_1_0_4_4 + X_1_0_4_5 + X_1_0_4_6 = 2 * Y1;
X_2_0_0_0 + X_2_0_0_1 + X_2_0_0_2 + X_2_0_0_3 + X_2_0_0_4 + X_2_0_0_5 + X_2_0_0_6 + X_2_0_1_0 + X_2_0_1_1 + X_2_0_1_2 + X_2_0_1_3 + X_2_0_1_4 + X_2_0_1_5 + X_2_0_1_6 + X_2_0_2_0 + X_2_0_2_1 + X_2_0_2_2 + X_2_0_2_3 + X_2_0_2_4 + X_2_0_2_5 + X_2_0_2_6 + X_2_0_3_0 + X_2_0_3_1 + X_2_0_3_2 + X_2_0_3_3 + X_2_0_3_4 + X_2_0_3_5 + X_2_0_3_6 + X_2_0_4_0 + X_2_0_4_1 + X_2_0_4_2 + X_2_0_4_3 + X_2_0_4_4 + X_2_0_4_5 + X_2_0_4_6 = 1 * Y2;
X_3_0_0_0 + X_3_0_0_1 + X_3_0_0_2 + X_3_0_0_3 + X_3_0_0_4 + X_3_0_0_5 + X_3_0_0_6 + X_3_0_1_0 + X_3_0_1_1 + X_3_0_1_2 + X_3_0_1_3 + X_3_0_1_4 + X_3_0_1_5 + X_3_0_1_6 + X_3_0_2_0 + X_3_0_2_1 + X_3_0_2_2 + X_3_0_2_3 + X_3_0_2_4 + X_3_0_2_5 + X_3_0_2_6 + X_3_0_3_0 + X_3_0_3_1 + X_3_0_3_2 + X_3_0_3_3 + X_3_0_3_4 + X_3_0_3_5 + X_3_0_3_6 + X_3_0_4_0 + X_3_0_4_1 + X_3_0_4_2 + X_3_0_4_3 + X_3_0_4_4 + X_3_0_4_5 + X_3_0_4_6 = 1 * Y3;
X_4_0_0_0 + X_4_0_0_1 + X_4_0_0_2 + X_4_0_0_3 + X_4_0_0_4 + X_4_0_0_5 + X_4_0_0_6 + X_4_0_1_0 + X_4_0_1_1 + X_4_0_1_2 + X_4_0_1_3 + X_4_0_1_4 + X_4_0_1_5 + X_4_0_1_6 + X_4_0_2_0 + X_4_0_2_1 + X_4_0_2_2 + X_4_0_2_3 + X_4_0_2_4 + X_4_0_2_5 + X_4_0_2_6 + X_4_0_3_0 + X_4_0_3_1 + X_4_0_3_2 + X_4_0_3_3 + X_4_0_3_4 + X_4_0_3_5 + X_4_0_3_6 + X_4_0_4_0 + X_4_0_4_1 + X_4_0_4_2 + X_4_0_4_3 + X_4_0_4_4 + X_4_0_4_5 + X_4_0_4_6 = 1 * Y4;
X_5_0_0_0 + X_5_0_0_1 + X_5_0_0_2 + X_5_0_0_3 + X_5_0_0_4 + X_5_0_0_5 + X_5_0_0_6 + X_5_0_1_0 + X_5_0_1_1 + X_5_0_1_2 + X_5_0_1_3 + X_5_0_1_4 + X_5_0_1_5 + X_5_0_1_6 + X_5_0_2_0 + X_5_0_2_1 + X_5_0_2_2 + X_5_0_2_3 + X_5_0_2_4 + X_5_0_2_5 + X_5_0_2_6 + X_5_0_3_0 + X_5_0_3_1 + X_5_0_3_2 + X_5_0_3_3 + X_5_0_3_4 + X_5_0_3_5 + X_5_0_3_6 + X_5_0_4_0 + X_5_0_4_1 + X_5_0_4_2 + X_5_0_4_3 + X_5_0_4_4 + X_5_0_4_5 + X_5_0_4_6 = 2 * Y5;
X_6_0_0_0 + X_6_0_0_1 + X_6_0_0_2 + X_6_0_0_3 + X_6_0_0_4 + X_6_0_0_5 + X_6_0_0_6 + X_6_0_1_0 + X_6_0_1_1 + X_6_0_1_2 + X_6_0_1_3 + X_6_0_1_4 + X_6_0_1_5 + X_6_0_1_6 + X_6_0_2_0 + X_6_0_2_1 + X_6_0_2_2 + X_6_0_2_3 + X_6_0_2_4 + X_6_0_2_5 + X_6_0_2_6 + X_6_0_3_0 + X_6_0_3_1 + X_6_0_3_2 + X_6_0_3_3 + X_6_0_3_4 + X_6_0_3_5 + X_6_0_3_6 + X_6_0_4_0 + X_6_0_4_1 + X_6_0_4_2 + X_6_0_4_3 + X_6_0_4_4 + X_6_0_4_5 + X_6_0_4_6 = 1 * Y6;
X_7_0_0_0 + X_7_0_0_1 + X_7_0_0_2 + X_7_0_0_3 + X_7_0_0_4 + X_7_0_0_5 + X_7_0_0_6 + X_7_0_1_0 + X_7_0_1_1 + X_7_0_1_2 + X_7_0_1_3 + X_7_0_1_4 + X_7_0_1_5 + X_7_0_1_6 + X_7_0_2_0 + X_7_0_2_1 + X_7_0_2_2 + X_7_0_2_3 + X_7_0_2_4 + X_7_0_2_5 + X_7_0_2_6 + X_7_0_3_0 + X_7_0_3_1 + X_7_0_3_2 + X_7_0_3_3 + X_7_0_3_4 + X_7_0_3_5 + X_7_0_3_6 + X_7_0_4_0 + X_7_0_4_1 + X_7_0_4_2 + X_7_0_4_3 + X_7_0_4_4 + X_7_0_4_5 + X_7_0_4_6 = 1 * Y7;
X_8_0_0_0 + X_8_0_0_1 + X_8_0_0_2 + X_8_0_0_3 + X_8_0_0_4 + X_8_0_0_5 + X_8_0_0_6 + X_8_0_1_0 + X_8_0_1_1 + X_8_0_1_2 + X_8_0_1_3 + X_8_0_1_4 + X_8_0_1_5 + X_8_0_1_6 + X_8_0_2_0 + X_8_0_2_1 + X_8_0_2_2 + X_8_0_2_3 + X_8_0_2_4 + X_8_0_2_5 + X_8_0_2_6 + X_8_0_3_0 + X_8_0_3_1 + X_8_0_3_2 + X_8_0_3_3 + X_8_0_3_4 + X_8_0_3_5 + X_8_0_3_6 + X_8_0_4_0 + X_8_0_4_1 + X_8_0_4_2 + X_8_0_4_3 + X_8_0_4_4 + X_8_0_4_5 + X_8_0_4_6 = 1 * Y8;
X_9_0_0_0 + X_9_0_0_1 + X_9_0_0_2 + X_9_0_0_3 + X_9_0_0_4 + X_9_0_0_5 + X_9_0_0_6 + X_9_0_1_0 + X_9_0_1_1 + X_9_0_1_2 + X_9_0_1_3 + X_9_0_1_4 + X_9_0_1_5 + X_9_0_1_6 + X_9_0_2_0 + X_9_0_2_1 + X_9_0_2_2 + X_9_0_2_3 + X_9_0_2_4 + X_9_0_2_5 + X_9_0_2_6 + X_9_0_3_0 + X_9_0_3_1 + X_9_0_3_2 + X_9_0_3_3 + X_9_0_3_4 + X_9_0_3_5 + X_9_0_3_6 + X_9_0_4_0 + X_9_0_4_1 + X_9_0_4_2 + X_9_0_4_3 + X_9_0_4_4 + X_9_0_4_5 + X_9_0_4_6 = 1 * Y9;
/* PRIORIDAD ASIGNACION: */
Y0 >= 1;
Y1 >= 0;
Y2 >= 0;
Y3 >= 0;
Y4 >= 0;
Y5 >= 0;
Y6 >= 0;
Y7 >= 1;
Y8 >= 0;
Y9 >= 0;
/* HORARIO PROFESORES: */
X_0_0_0_0 <= 1;
X_0_0_0_1 <= 1;
X_0_0_0_2 <= 0;
X_0_0_0_3 <= 1;
X_0_0_0_4 <= 1;
X_0_0_0_5 <= 1;
X_0_0_0_6 <= 0;
X_0_0_1_0 <= 1;
X_0_0_1_1 <= 1;
X_0_0_1_2 <= 0;
X_0_0_1_3 <= 0;
X_0_0_1_4 <= 0;
X_0_0_1_5 <= 0;
X_0_0_1_6 <= 0;
X_0_0_2_0 <= 1;
X_0_0_2_1 <= 1;
X_0_0_2_2 <= 1;
X_0_0_2_3 <= 0;
X_0_0_2_4 <= 0;
X_0_0_2_5 <= 1;
X_0_0_2_6 <= 0;
X_0_0_3_0 <= 1;
X_0_0_3_1 <= 1;
X_0_0_3_2 <= 0;
X_0_0_3_3 <= 0;
X_0_0_3_4 <= 0;
X_0_0_3_5 <= 1;
X_0_0_3_6 <= 0;
X_0_0_4_0 <= 1;
X_0_0_4_1 <= 0;
X_0_0_4_2 <= 0;
X_0_0_4_3 <= 0;
X_0_0_4_4 <= 0;
X_0_0_4_5 <= 0;
X_0_0_4_6 <= 0;
X_1_0_0_0 <= 1;
X_1_0_0_1 <= 0;
X_1_0_0_2 <= 0;
X_1_0_0_3 <= 1;
X_1_0_0_4 <= 0;
X_1_0_0_5 <= 1;
X_1_0_0_6 <= 0;
X_1_0_1_0 <= 1;
X_1_0_1_1 <= 1;
X_1_0_1_2 <= 1;
X_1_0_1_3 <= 0;
X_1_0_1_4 <= 1;
X_1_0_1_5 <= 1;
X_1_0_1_6 <= 1;
X_1_0_2_0 <= 1;
X_1_0_2_1 <= 1;
X_1_0_2_2 <= 1;
X_1_0_2_3 <= 1;
X_1_0_2_4 <= 1;
X_1_0_2_5 <= 1;
X_1_0_2_6 <= 1;
X_1_0_3_0 <= 0;
X_1_0_3_1 <= 1;
X_1_0_3_2 <= 1;
X_1_0_3_3 <= 0;
X_1_0_3_4 <= 1;
X_1_0_3_5 <= 0;
X_1_0_3_6 <= 1;
X_1_0_4_0 <= 1;
X_1_0_4_1 <= 1;
X_1_0_4_2 <= 0;
X_1_0_4_3 <= 1;
X_1_0_4_4 <= 1;
X_1_0_4_5 <= 0;
X_1_0_4_6 <= 1;
X_2_0_0_0 <= 1;
X_2_0_0_1 <= 1;
X_2_0_0_2 <= 1;
X_2_0_0_3 <= 1;
X_2_0_0_4 <= 0;
X_2_0_0_5 <= 1;
X_2_0_0_6 <= 1;
X_2_0_1_0 <= 1;
X_2_0_1_1 <= 0;
X_2_0_1_2 <= 0;
X_2_0_1_3 <= 0;
X_2_0_1_4 <= 1;
X_2_0_1_5 <= 0;
X_2_0_1_6 <= 1;
X_2_0_2_0 <= 0;
X_2_0_2_1 <= 0;
X_2_0_2_2 <= 1;
X_2_0_2_3 <= 0;
X_2_0_2_4 <= 1;
X_2_0_2_5 <= 1;
X_2_0_2_6 <= 0;
X_2_0_3_0 <= 0;
X_2_0_3_1 <= 1;
X_2_0_3_2 <= 0;
X_2_0_3_3 <= 0;
X_2_0_3_4 <= 1;
X_2_0_3_5 <= 0;
X_2_0_3_6 <= 1;
X_2_0_4_0 <= 1;
X_2_0_4_1 <= 1;
X_2_0_4_2 <= 0;
X_2_0_4_3 <= 1;
X_2_0_4_4 <= 1;
X_2_0_4_5 <= 0;
X_2_0_4_6 <= 1;
X_3_0_0_0 <= 1;
X_3_0_0_1 <= 1;
X_3_0_0_2 <= 1;
X_3_0_0_3 <= 0;
X_3_0_0_4 <= 1;
X_3_0_0_5 <= 1;
X_3_0_0_6 <= 1;
X_3_0_1_0 <= 0;
X_3_0_1_1 <= 1;
X_3_0_1_2 <= 1;
X_3_0_1_3 <= 0;
X_3_0_1_4 <= 0;
X_3_0_1_5 <= 1;
X_3_0_1_6 <= 1;
X_3_0_2_0 <= 1;
X_3_0_2_1 <= 1;
X_3_0_2_2 <= 1;
X_3_0_2_3 <= 1;
X_3_0_2_4 <= 0;
X_3_0_2_5 <= 0;
X_3_0_2_6 <= 1;
X_3_0_3_0 <= 1;
X_3_0_3_1 <= 1;
X_3_0_3_2 <= 1;
X_3_0_3_3 <= 1;
X_3_0_3_4 <= 1;
X_3_0_3_5 <= 1;
X_3_0_3_6 <= 0;
X_3_0_4_0 <= 0;
X_3_0_4_1 <= 0;
X_3_0_4_2 <= 0;
X_3_0_4_3 <= 1;
X_3_0_4_4 <= 1;
X_3_0_4_5 <= 1;
X_3_0_4_6 <= 1;
X_4_0_0_0 <= 1;
X_4_0_0_1 <= 1;
X_4_0_0_2 <= 1;
X_4_0_0_3 <= 1;
X_4_0_0_4 <= 0;
X_4_0_0_5 <= 0;
X_4_0_0_6 <= 1;
X_4_0_1_0 <= 0;
X_4_0_1_1 <= 1;
X_4_0_1_2 <= 0;
X_4_0_1_3 <= 0;
X_4_0_1_4 <= 1;
X_4_0_1_5 <= 1;
X_4_0_1_6 <= 1;
X_4_0_2_0 <= 1;
X_4_0_2_1 <= 1;
X_4_0_2_2 <= 1;
X_4_0_2_3 <= 1;
X_4_0_2_4 <= 0;
X_4_0_2_5 <= 1;
X_4_0_2_6 <= 0;
X_4_0_3_0 <= 1;
X_4_0_3_1 <= 1;
X_4_0_3_2 <= 1;
X_4_0_3_3 <= 1;
X_4_0_3_4 <= 1;
X_4_0_3_5 <= 1;
X_4_0_3_6 <= 1;
X_4_0_4_0 <= 0;
X_4_0_4_1 <= 0;
X_4_0_4_2 <= 1;
X_4_0_4_3 <= 0;
X_4_0_4_4 <= 1;
X_4_0_4_5 <= 1;
X_4_0_4_6 <= 1;
X_5_0_0_0 <= 1;
X_5_0_0_1 <= 0;
X_5_0_0_2 <= 1;
X_5_0_0_3 <= 0;
X_5_0_0_4 <= 0;
X_5_0_0_5 <= 0;
X_5_0_0_6 <= 1;
X_5_0_1_0 <= 0;
X_5_0_1_1 <= 0;
X_5_0_1_2 <= 1;
X_5_0_1_3 <= 1;
X_5_0_1_4 <= 0;
X_5_0_1_5 <= 1;
X_5_0_1_6 <= 0;
X_5_0_2_0 <= 1;
X_5_0_2_1 <= 1;
X_5_0_2_2 <= 0;
X_5_0_2_3 <= 0;
X_5_0_2_4 <= 0;
X_5_0_2_5 <= 0;
X_5_0_2_6 <= 1;
X_5_0_3_0 <= 1;
X_5_0_3_1 <= 1;
X_5_0_3_2 <= 0;
X_5_0_3_3 <= 1;
X_5_0_3_4 <= 1;
X_5_0_3_5 <= 1;
X_5_0_3_6 <= 1;
X_5_0_4_0 <= 0;
X_5_0_4_1 <= 1;
X_5_0_4_2 <= 0;
X_5_0_4_3 <= 0;
X_5_0_4_4 <= 1;
X_5_0_4_5 <= 1;
X_5_0_4_6 <= 0;
X_6_0_0_0 <= 1;
X_6_0_0_1 <= 1;
X_6_0_0_2 <= 1;
X_6_0_0_3 <= 1;
X_6_0_0_4 <= 1;
X_6_0_0_5 <= 1;
X_6_0_0_6 <= 0;
X_6_0_1_0 <= 1;
X_6_0_1_1 <= 0;
X_6_0_1_2 <= 1;
X_6_0_1_3 <= 1;
X_6_0_1_4 <= 0;
X_6_0_1_5 <= 0;
X_6_0_1_6 <= 0;
X_6_0_2_0 <= 1;
X_6_0_2_1 <= 1;
X_6_0_2_2 <= 0;
X_6_0_2_3 <= 1;
X_6_0_2_4 <= 1;
X_6_0_2_5 <= 1;
X_6_0_2_6 <= 1;
X_6_0_3_0 <= 0;
X_6_0_3_1 <= 1;
X_6_0_3_2 <= 0;
X_6_0_3_3 <= 1;
X_6_0_3_4 <= 1;
X_6_0_3_5 <= 1;
X_6_0_3_6 <= 0;
X_6_0_4_0 <= 1;
X_6_0_4_1 <= 1;
X_6_0_4_2 <= 0;
X_6_0_4_3 <= 0;
X_6_0_4_4 <= 1;
X_6_0_4_5 <= 1;
X_6_0_4_6 <= 1;
X_7_0_0_0 <= 1;
X_7_0_0_1 <= 0;
X_7_0_0_2 <= 1;
X_7_0_0_3 <= 1;
X_7_0_0_4 <= 1;
X_7_0_0_5 <= 1;
X_7_0_0_6 <= 1;
X_7_0_1_0 <= 1;
X_7_0_1_1 <= 1;
X_7_0_1_2 <= 0;
X_7_0_1_3 <= 1;
X_7_0_1_4 <= 0;
X_7_0_1_5 <= 0;
X_7_0_1_6 <= 0;
X_7_0_2_0 <= 0;
X_7_0_2_1 <= 1;
X_7_0_2_2 <= 1;
X_7_0_2_3 <= 1;
X_7_0_2_4 <= 1;
X_7_0_2_5 <= 0;
X_7_0_2_6 <= 1;
X_7_0_3_0 <= 0;
X_7_0_3_1 <= 0;
X_7_0_3_2 <= 1;
X_7_0_3_3 <= 0;
X_7_0_3_4 <= 0;
X_7_0_3_5 <= 0;
X_7_0_3_6 <= 0;
X_7_0_4_0 <= 1;
X_7_0_4_1 <= 0;
X_7_0_4_2 <= 0;
X_7_0_4_3 <= 1;
X_7_0_4_4 <= 0;
X_7_0_4_5 <= 1;
X_7_0_4_6 <= 1;
X_8_0_0_0 <= 0;
X_8_0_0_1 <= 0;
X_8_0_0_2 <= 1;
X_8_0_0_3 <= 1;
X_8_0_0_4 <= 0;
X_8_0_0_5 <= 1;
X_8_0_0_6 <= 1;
X_8_0_1_0 <= 0;
X_8_0_1_1 <= 1;
X_8_0_1_2 <= 1;
X_8_0_1_3 <= 0;
X_8_0_1_4 <= 1;
X_8_0_1_5 <= 0;
X_8_0_1_6 <= 0;
X_8_0_2_0 <= 0;
X_8_0_2_1 <= 1;
X_8_0_2_2 <= 1;
X_8_0_2_3 <= 1;
X_8_0_2_4 <= 0;
X_8_0_2_5 <= 0;
X_8_0_2_6 <= 0;
X_8_0_3_0 <= 0;
X_8_0_3_1 <= 0;
X_8_0_3_2 <= 0;
X_8_0_3_3 <= 0;
X_8_0_3_4 <= 0;
X_8_0_3_5 <= 0;
X_8_0_3_6 <= 0;
X_8_0_4_0 <= 0;
X_8_0_4_1 <= 1;
X_8_0_4_2 <= 0;
X_8_0_4_3 <= 1;
X_8_0_4_4 <= 0;
X_8_0_4_5 <= 1;
X_8_0_4_6 <= 1;
X_9_0_0_0 <= 1;
X_9_0_0_1 <= 1;
X_9_0_0_2 <= 0;
X_9_0_0_3 <= 1;
X_9_0_0_4 <= 1;
X_9_0_0_5 <= 1;
X_9_0_0_6 <= 1;
X_9_0_1_0 <= 1;
X_9_0_1_1 <= 1;
X_9_0_1_2 <= 1;
X_9_0_1_3 <= 1;
X_9_0_1_4 <= 1;
X_9_0_1_5 <= 0;
X_9_0_1_6 <= 1;
X_9_0_2_0 <= 0;
X_9_0_2_1 <= 1;
X_9_0_2_2 <= 1;
X_9_0_2_3 <= 1;
X_9_0_2_4 <= 1;
X_9_0_2_5 <= 1;
X_9_0_2_6 <= 1;
X_9_0_3_0 <= 1;
X_9_0_3_1 <= 0;
X_9_0_3_2 <= 1;
X_9_0_3_3 <= 0;
X_9_0_3_4 <= 1;
X_9_0_3_5 <= 1;
X_9_0_3_6 <= 1;
X_9_0_4_0 <= 0;
X_9_0_4_1 <= 1;
X_9_0_4_2 <= 0;
X_9_0_4_3 <= 1;
X_9_0_4_4 <= 1;
X_9_0_4_5 <= 1;
X_9_0_4_6 <= 0;
/* DECLARACION BINARIA: */
bin X_0_0_0_0, X_0_0_0_1, X_0_0_0_2, X_0_0_0_3, X_0_0_0_4, X_0_0_0_5, X_0_0_0_6, X_0_0_1_0, X_0_0_1_1, X_0_0_1_2, X_0_0_1_3, X_0_0_1_4, X_0_0_1_5, X_0_0_1_6, X_0_0_2_0, X_0_0_2_1, X_0_0_2_2, X_0_0_2_3, X_0_0_2_4, X_0_0_2_5, X_0_0_2_6, X_0_0_3_0, X_0_0_3_1, X_0_0_3_2, X_0_0_3_3, X_0_0_3_4, X_0_0_3_5, X_0_0_3_6, X_0_0_4_0, X_0_0_4_1, X_0_0_4_2, X_0_0_4_3, X_0_0_4_4, X_0_0_4_5, X_0_0_4_6, X_1_0_0_0, X_1_0_0_1, X_1_0_0_2, X_1_0_0_3, X_1_0_0_4, X_1_0_0_5, X_1_0_0_6, X_1_0_1_0, X_1_0_1_1, X_1_0_1_2, X_1_0_1_3, X_1_0_1_4, X_1_0_1_5, X_1_0_1_6, X_1_0_2_0, X_1_0_2_1, X_1_0_2_2, X_1_0_2_3, X_1_0_2_4, X_1_0_2_5, X_1_0_2_6, X_1_0_3_0, X_1_0_3_1, X_1_0_3_2, X_1_0_3_3, X_1_0_3_4, X_1_0_3_5, X_1_0_3_6, X_1_0_4_0, X_1_0_4_1, X_1_0_4_2, X_1_0_4_3, X_1_0_4_4, X_1_0_4_5, X_1_0_4_6, X_2_0_0_0, X_2_0_0_1, X_2_0_0_2, X_2_0_0_3, X_2_0_0_4, X_2_0_0_5, X_2_0_0_6, X_2_0_1_0, X_2_0_1_1, X_2_0_1_2, X_2_0_1_3, X_2_0_1_4, X_2_0_1_5, X_2_0_1_6, X_2_0_2_0, X_2_0_2_1, X_2_0_2_2, X_2_0_2_3, X_2_0_2_4, X_2_0_2_5, X_2_0_2_6, X_2_0_3_0, X_2_0_3_1, X_2_0_3_2, X_2_0_3_3, X_2_0_3_4, X_2_0_3_5, X_2_0_3_6, X_2_0_4_0, X_2_0_4_1, X_2_0_4_2, X_2_0_4_3, X_2_0_4_4, X_2_0_4_5, X_2_0_4_6, X_3_0_0_0, X_3_0_0_1, X_3_0_0_2, X_3_0_0_3, X_3_0_0_4, X_3_0_0_5, X_3_0_0_6, X_3_0_1_0, X_3_0_1_1, X_3_0_1_2, X_3_0_1_3, X_3_0_1_4, X_3_0_1_5, X_3_0_1_6, X_3_0_2_0, X_3_0_2_1, X_3_0_2_2, X_3_0_2_3, X_3_0_2_4, X_3_0_2_5, X_3_0_2_6, X_3_0_3_0, X_3_0_3_1, X_3_0_3_2, X_3_0_3_3, X_3_0_3_4, X_3_0_3_5, X_3_0_3_6, X_3_0_4_0, X_3_0_4_1, X_3_0_4_2, X_3_0_4_3, X_3_0_4_4, X_3_0_4_5, X_3_0_4_6, X_4_0_0_0, X_4_0_0_1, X_4_0_0_2, X_4_0_0_3, X_4_0_0_4, X_4_0_0_5, X_4_0_0_6, X_4_0_1_0, X_4_0_1_1, X_4_0_1_2, X_4_0_1_3, X_4_0_1_4, X_4_0_1_5, X_4_0_1_6, X_4_0_2_0, X_4_0_2_1, X_4_0_2_2, X_4_0_2_3, X_4_0_2_4, X_4_0_2_5, X_4_0_2_6, X_4_0_3_0, X_4_0_3_1, X_4_0_3_2, X_4_0_3_3, X_4_0_3_4, X_4_0_3_5, X_4_0_3_6, X_4_0_4_0, X_4_0_4_1, X_4_0_4_2, X_4_0_4_3, X_4_0_4_4, X_4_0_4_5, X_4_0_4_6, X_5_0_0_0, X_5_0_0_1, X_5_0_0_2, X_5_0_0_3, X_5_0_0_4, X_5_0_0_5, X_5_0_0_6, X_5_0_1_0, X_5_0_1_1, X_5_0_1_2, X_5_0_1_3, X_5_0_1_4, X_5_0_1_5, X_5_0_1_6, X_5_0_2_0, X_5_0_2_1, X_5_0_2_2, X_5_0_2_3, X_5_0_2_4, X_5_0_2_5, X_5_0_2_6, X_5_0_3_0, X_5_0_3_1, X_5_0_3_2, X_5_0_3_3, X_5_0_3_4, X_5_0_3_5, X_5_0_3_6, X_5_0_4_0, X_5_0_4_1, X_5_0_4_2, X_5_0_4_3, X_5_0_4_4, X_5_0_4_5, X_5_0_4_6, X_6_0_0_0, X_6_0_0_1, X_6_0_0_2, X_6_0_0_3, X_6_0_0_4, X_6_0_0_5, X_6_0_0_6, X_6_0_1_0, X_6_0_1_1, X_6_0_1_2, X_6_0_1_3, X_6_0_1_4, X_6_0_1_5, X_6_0_1_6, X_6_0_2_0, X_6_0_2_1, X_6_0_2_2, X_6_0_2_3, X_6_0_2_4, X_6_0_2_5, X_6_0_2_6, X_6_0_3_0, X_6_0_3_1, X_6_0_3_2, X_6_0_3_3, X_6_0_3_4, X_6_0_3_5, X_6_0_3_6, X_6_0_4_0, X_6_0_4_1, X_6_0_4_2, X_6_0_4_3, X_6_0_4_4, X_6_0_4_5, X_6_0_4_6, X_7_0_0_0, X_7_0_0_1, X_7_0_0_2, X_7_0_0_3, X_7_0_0_4, X_7_0_0_5, X_7_0_0_6, X_7_0_1_0, X_7_0_1_1, X_7_0_1_2, X_7_0_1_3, X_7_0_1_4, X_7_0_1_5, X_7_0_1_6, X_7_0_2_0, X_7_0_2_1, X_7_0_2_2, X_7_0_2_3, X_7_0_2_4, X_7_0_2_5, X_7_0_2_6, X_7_0_3_0, X_7_0_3_1, X_7_0_3_2, X_7_0_3_3, X_7_0_3_4, X_7_0_3_5, X_7_0_3_6, X_7_0_4_0, X_7_0_4_1, X_7_0_4_2, X_7_0_4_3, X_7_0_4_4, X_7_0_4_5, X_7_0_4_6, X_8_0_0_0, X_8_0_0_1, X_8_0_0_2, X_8_0_0_3, X_8_0_0_4, X_8_0_0_5, X_8_0_0_6, X_8_0_1_0, X_8_0_1_1, X_8_0_1_2, X_8_0_1_3, X_8_0_1_4, X_8_0_1_5, X_8_0_1_6, X_8_0_2_0, X_8_0_2_1, X_8_0_2_2, X_8_0_2_3, X_8_0_2_4, X_8_0_2_5, X_8_0_2_6, X_8_0_3_0, X_8_0_3_1, X_8_0_3_2, X_8_0_3_3, X_8_0_3_4, X_8_0_3_5, X_8_0_3_6, X_8_0_4_0, X_8_0_4_1, X_8_0_4_2, X_8_0_4_3, X_8_0_4_4, X_8_0_4_5, X_8_0_4_6, X_9_0_0_0, X_9_0_0_1, X_9_0_0_2, X_9_0_0_3, X_9_0_0_4, X_9_0_0_5, X_9_0_0_6, X_9_0_1_0, X_9_0_1_1, X_9_0_1_2, X_9_0_1_3, X_9_0_1_4, X_9_0_1_5, X_9_0_1_6, X_9_0_2_0, X_9_0_2_1, X_9_0_2_2, X_9_0_2_3, X_9_0_2_4, X_9_0_2_5, X_9_0_2_6, X_9_0_3_0, X_9_0_3_1, X_9_0_3_2, X_9_0_3_3, X_9_0_3_4, X_9_0_3_5, X_9_0_3_6, X_9_0_4_0, X_9_0_4_1, X_9_0_4_2, X_9_0_4_3, X_9_0_4_4, X_9_0_4_5, X_9_0_4_6, Y0, Y1, Y2, Y3, Y4, Y5, Y6, Y7, Y8, Y9;
